DATASET = "thpack5";
INSTANCE = "023";

WIDTH = 233;
HEIGHT = 220;
LENGTH = 587;

NO_OF_SHAPES = 12;
size = [|
  84,81,23 |
  115,72,64 |
  77,49,25 |
  40,37,22 |
  97,96,46 |
  95,43,25 |
  90,69,28 |
  56,51,49 |
  118,93,80 |
  56,47,41 |
  78,71,27 |
  88,62,41 |
|];

verticality = [|
  0,0,1 |
  1,1,1 |
  0,1,1 |
  1,1,1 |
  0,0,1 |
  0,1,1 |
  0,0,1 |
  1,1,1 |
  1,1,1 |
  1,1,1 |
  0,0,1 |
  0,1,1 |
|];

box_count = [
  10,
  15,
  13,
  14,
  6,
  8,
  13,
  14,
  4,
  16,
  15,
  15,
];
